0 75 
1 77 
2 76 
3 78 
4 77 
5 75 
6 73 
7 73 
8 72 
9 67 
10 65 
11 65 
12 69 
13 67 
14 64 
15 62 
16 62 
17 59 
18 60 
19 56 
20 59 
21 58 
22 55 
23 52 
24 50 
25 49 
26 50 
27 49 
28 46 
29 45 
30 45 
31 42 
32 42 
33 41 
34 34 
35 38 
36 35 
37 33 
38 32 
39 29 
40 27 
41 26 
42 28 
43 27 
44 26 
45 27 
46 24 
47 24 
48 22 
49 21 
50 20 
51 19 
52 18 
53 16 
54 13 
55 10 
56 10 
57 10 
58 9 
59 6 
60 4 
61 3 
62 2 
63 1 
64 0 
65 0 

